qbf_easy_train/easy_620_SAT.qdimacs
p cnf 22 56
a 1 6 7 0
e 2 3 4 5 8 9 10 11 12 13 14 15 16 17 18 19 20 21 22 0
-2 1 0
-2 1 0
-1 2 0
-5 3 0
-5 -4 0
-3 4 5 0
5 -6 -7 0
-5 6 -7 0
5 6 7 0
-5 -6 7 0
8 7 0
8 -6 0
-7 6 -8 0
2 -8 -9 0
-2 8 -9 0
2 8 9 0
-2 -8 9 0
-10 -3 -11 0
10 3 -11 0
-10 3 11 0
10 -3 11 0
4 -11 -12 0
-4 11 -12 0
4 11 12 0
-4 -11 12 0
-13 9 0
-13 -12 0
-9 12 13 0
-15 14 0
-15 -10 0
-14 10 15 0
-16 -4 -17 0
16 4 -17 0
-16 4 17 0
16 -4 17 0
-18 15 0
-18 -17 0
-15 17 18 0
13 18 -19 0
-13 -18 -19 0
13 -18 19 0
-13 18 19 0
-7 -20 -21 0
7 20 -21 0
-7 20 21 0
7 -20 21 0
19 -21 -22 0
-19 21 -22 0
19 21 22 0
-19 -21 22 0
11 -12 14 -8 7 -22 -16 0
8 11 18 -21 14 0
13 7 8 -2 -17 5 18 0
8 4 22 -2 12 5 0
22 -11 16 0
22 0
