sat_easy_train/easy_620_SAT.dimacs
p cnf 94 298
-4 2 0
-4 -3 0
-2 3 4 0
1 -4 -5 0
-1 4 -5 0
1 4 5 0
-1 -4 5 0
-8 6 0
-8 7 0
-6 -7 8 0
-5 8 -9 0
5 -8 -9 0
-5 -8 9 0
5 8 9 0
10 11 -12 0
-10 -11 -12 0
10 -11 12 0
-10 11 12 0
-13 1 -14 0
13 -1 -14 0
-13 -1 14 0
13 1 14 0
16 -14 0
16 -15 0
14 15 -16 0
18 16 0
18 17 0
-16 -17 -18 0
18 1 -19 0
-18 -1 -19 0
18 -1 19 0
-18 1 19 0
20 12 0
20 -19 0
-12 19 -20 0
-22 -20 0
-22 21 0
20 -21 22 0
23 -11 0
23 7 0
11 -7 -23 0
24 22 0
24 23 0
-22 -23 -24 0
-25 11 0
-25 -4 0
-11 4 25 0
26 7 0
26 3 0
-7 -3 -26 0
27 -11 0
27 26 0
11 -26 -27 0
-28 25 0
-28 -27 0
-25 27 28 0
-24 28 -29 0
24 -28 -29 0
-24 -28 29 0
24 28 29 0
-9 29 -30 0
9 -29 -30 0
-9 -29 30 0
9 29 30 0
-32 15 0
-32 -7 0
-15 7 32 0
-33 13 0
-33 2 0
-13 -2 33 0
34 32 0
34 33 0
-32 -33 -34 0
31 34 -35 0
-31 -34 -35 0
31 -34 35 0
-31 34 35 0
-36 26 0
-36 4 0
-26 -4 36 0
-37 -35 0
-37 -36 0
35 36 37 0
39 -37 0
39 38 0
37 -38 -39 0
40 -21 -41 0
-40 21 -41 0
40 21 41 0
-40 -21 41 0
41 -18 -42 0
-41 18 -42 0
41 18 42 0
-41 -18 42 0
43 -26 0
43 18 0
26 -18 -43 0
-44 -42 0
-44 43 0
42 -43 44 0
-2 7 -45 0
2 -7 -45 0
-2 -7 45 0
2 7 45 0
-45 6 -46 0
45 -6 -46 0
-45 -6 46 0
45 6 46 0
47 8 0
47 46 0
-8 -46 -47 0
-48 44 0
-48 -47 0
-44 47 48 0
49 39 0
49 -48 0
-39 48 -49 0
50 -11 0
50 33 0
11 -33 -50 0
51 50 0
51 -10 0
-50 10 -51 0
4 1 -52 0
-4 -1 -52 0
4 -1 52 0
-4 1 52 0
-51 -52 -53 0
51 52 -53 0
-51 52 53 0
51 -52 53 0
54 53 0
54 6 0
-53 -6 -54 0
-55 10 0
-55 -32 0
-10 32 55 0
-31 -55 -56 0
31 55 -56 0
-31 55 56 0
31 -55 56 0
-31 -13 -57 0
31 13 -57 0
-31 13 57 0
31 -13 57 0
-58 -56 0
-58 -57 0
56 57 58 0
-59 54 0
-59 -58 0
-54 58 59 0
60 38 0
60 14 0
-38 -14 -60 0
61 -25 0
61 -31 0
25 31 -61 0
62 10 0
62 61 0
-10 -61 -62 0
-63 15 -64 0
63 -15 -64 0
-63 -15 64 0
63 15 64 0
65 -62 0
65 64 0
62 -64 -65 0
-66 -15 0
-66 -21 0
15 21 66 0
-67 31 0
-67 66 0
-31 -66 67 0
-68 -65 0
-68 67 0
65 -67 68 0
-69 60 0
-69 68 0
-60 -68 69 0
70 -59 0
70 -69 0
59 69 -70 0
-71 7 0
-71 -26 0
-7 26 71 0
51 71 -72 0
-51 -71 -72 0
51 -71 72 0
-51 71 72 0
73 33 0
73 -13 0
-33 13 -73 0
74 72 0
74 73 0
-72 -73 -74 0
-75 70 0
-75 -74 0
-70 74 75 0
21 -33 -76 0
-21 33 -76 0
21 33 76 0
-21 -33 76 0
77 11 0
77 45 0
-11 -45 -77 0
-78 -31 0
-78 77 0
31 -77 78 0
-79 -3 0
-79 32 0
3 -32 79 0
80 -78 0
80 -79 0
78 79 -80 0
-81 63 0
-81 -66 0
-63 66 81 0
-80 -81 -82 0
80 81 -82 0
-80 81 82 0
80 -81 82 0
76 -82 -83 0
-76 82 -83 0
76 82 83 0
-76 -82 83 0
-84 66 0
-84 2 0
-66 -2 84 0
-27 -84 -85 0
27 84 -85 0
-27 84 85 0
27 -84 85 0
86 3 0
86 -35 0
-3 35 -86 0
-87 85 0
-87 86 0
-85 -86 87 0
-62 88 -89 0
62 -88 -89 0
-62 -88 89 0
62 88 89 0
90 87 0
90 89 0
-87 -89 -90 0
83 -90 -91 0
-83 90 -91 0
83 90 91 0
-83 -90 91 0
-92 75 0
-92 91 0
-75 -91 92 0
-93 -49 0
-93 -92 0
49 92 93 0
94 30 0
94 93 0
-30 -93 -94 0
24 55 80 0
75 -3 -34 0
40 -25 30 8 -56 0
31 51 -56 42 0
59 61 42 -50 0
34 -22 -81 78 0
65 -82 24 0
-92 19 0
-9 -6 0
-39 -94 -66 41 -91 0
3 -44 67 0
93 -1 69 0
-86 35 -18 -46 72 49 0
-5 -13 87 0
86 19 0
52 -18 0
48 -75 -6 -80 -76 44 0
-5 -75 89 -54 -26 0
25 -44 -92 0
-44 5 -43 0
-38 -14 88 -39 0
85 -77 -49 76 0
-30 -44 -83 -33 0
-89 51 60 -1 0
73 -60 0
72 33 0
-52 92 0
16 34 48 -11 -37 0
44 1 0
-72 -64 -27 0
28 15 -29 43 39 -7 0
-89 -6 -60 0
6 68 45 18 0
40 60 12 0
55 63 0
58 21 -83 -13 0
-80 -48 55 -70 0
66 -51 -18 -62 -81 -23 0
-11 -54 3 -65 39 0
94 0
